% File represents an instance of a Composite Structure problem to be solved by a CP framework
% Created on 2025-03-25 14:06:13.027
T = 40;
n = 25;
m = 40;
edges = [(2, 1),
(7, 6),
(12, 11),
(16, 17),
(21, 22),
(2, 3),
(7, 8),
(13, 12),
(18, 17),
(23, 22),
(4, 3),
(8, 9),
(13, 14),
(19, 18),
(24, 23),
(5, 4),
(10, 9),
(15, 14),
(20, 19),
(25, 24),
(6, 1),
(6, 11),
(16, 11),
(16, 21),
(7, 2),
(7, 12),
(12, 17),
(17, 22),
(8, 3),
(13, 8),
(13, 18),
(18, 23),
(4, 9),
(14, 9),
(19, 14),
(19, 24),
(5, 10),
(15, 10),
(20, 15),
(20, 25)];
counts = [|6, 6, 10, 2,
|6, 6, 12, 2,
|6, 4, 12, 2,
|10, 4, 14, 2,
|10, 6, 16, 8,
|6, 10, 10, 6,
|6, 10, 14, 6,
|6, 4, 14, 4,
|4, 4, 10, 2,
|10, 4, 10, 6,
|2, 4, 10, 6,
|2, 8, 10, 6,
|6, 8, 16, 6,
|6, 6, 10, 4,
|10, 6, 10, 6,
|4, 4, 10, 8,
|2, 4, 8, 6,
|2, 6, 12, 6,
|6, 6, 12, 6,
|10, 6, 16, 6,
|4, 4, 4, 8,
|2, 4, 2, 2,
|2, 6, 2, 6,
|4, 6, 6, 6,
|10, 6, 6, 6|];
